NAME : local_17
TYPE : ATSP
DIMENSION : 7
EDGE_WEIGHT_TYPE : EXPLICIT
EDGE_WEIGHT_FORMAT : FULL_MATRIX
EDGE_WEIGHT_SECTION
0 480 505 807 272 255 0 
0 0 975 10000000 420 536 480 
0 962 0 419 709 615 505 
0 10000000 419 0 985 864 809 
0 420 709 960 0 283 272 
0 536 615 866 283 0 255 
0 10000000 10000000 10000000 10000000 10000000 0 
EOF